(declare-fun e () String)
(declare-fun c () String)
(declare-fun d () String)
(declare-fun f () String)
(declare-fun a () String)
(declare-fun h () String)
(assert (= (str.++ c f e a "fe") (str.++ "db" a "gae")))
(assert (= "ghadf" (str.++ d e "h" h "g")))
(assert (= (str.++ d "cb" f) h))

(check-sat)
